interface second_otherwise
{
  in void hello();
  in void cruel();
  in void world();
  behavior
  {
    bool b = true;
    [b] on hello: b = false;
    [otherwise] on world: b = true;
    [otherwise] on cruel: {}
  }
}
